% Generated by MiniZinc 2.9.3
% Solver library: /home/icwmmarijnisse/Pumpkin/minizinc/lib
% Command line invocation: minizinc --compile --fzn ./instance.fzn --ozn ./instance.ozn --solver pumpkin ../../../../benchmarks/models/rcpsp/rcpsp_smaller.mzn ../../../../benchmarks/models/rcpsp/small_J90_37_1.dzn 

predicate pumpkin_cumulative(array [int] of var int: s,array [int] of int: d,array [int] of int: r,int: b);
array [1..2] of int: X_INTRODUCED_25_ = [1,-1];
var 0..31: X_INTRODUCED_16_;
var 0..31: X_INTRODUCED_17_;
var 0..31: X_INTRODUCED_18_;
var 0..31: X_INTRODUCED_19_;
var 0..31: X_INTRODUCED_20_;
var 0..31: X_INTRODUCED_21_;
var 0..32: Objective:: output_var;
array [1..6] of var int: Start:: output_array([1..6]) = [X_INTRODUCED_16_,X_INTRODUCED_17_,X_INTRODUCED_18_,X_INTRODUCED_19_,X_INTRODUCED_20_,X_INTRODUCED_21_];
array [1..4] of var int: X_INTRODUCED_29_ ::var_is_introduced  = [X_INTRODUCED_16_,X_INTRODUCED_18_,X_INTRODUCED_19_,X_INTRODUCED_20_];
array [1..6] of var int: X_INTRODUCED_32_ ::var_is_introduced  = [X_INTRODUCED_16_,X_INTRODUCED_17_,X_INTRODUCED_18_,X_INTRODUCED_19_,X_INTRODUCED_20_,Objective];
constraint int_lin_le(X_INTRODUCED_25_,[X_INTRODUCED_17_,X_INTRODUCED_20_],-1);
constraint int_lin_le(X_INTRODUCED_25_,[X_INTRODUCED_18_,X_INTRODUCED_19_],-8);
constraint pumpkin_cumulative(X_INTRODUCED_29_,[7,8,10,5],[10,3,7,5],15);
constraint int_lin_le(X_INTRODUCED_25_,[X_INTRODUCED_19_,Objective],-10);
constraint int_lin_le(X_INTRODUCED_25_,[X_INTRODUCED_20_,Objective],-5);
solve :: int_search(X_INTRODUCED_32_,smallest,indomain_min,complete) minimize Objective;
